instances/p2/p2_15_20-1.txt
{
	"num_strings": 15,
	"alphabet": "ACGT",
	"strings": [
		"CATCTATTGGATTCACG",
		"TTAGATTGTGGAGCGA",
		"ACAAGTGGCGTAATATTATG",
		"GGCGTCCCTTT",
		"ATAAGGCCTTTACAAA",
		"AAGACCCCAAGA",
		"CTAGGGACTTCGGG",
		"ATCCTACGCA",
		"ATCATATTGTGCC",
		"TCTTCCAGATGAAACG",
		"CC",
		"GATCCCGAGGTGTATA",
		"GCAGTAAGTGAGCCCCTGG",
		"TAGGGTCAGTTTCGTCA",
		"GCGCAAGTAG"
	],
	"str_length":[17,16,20,11,16,12,14,10,13,16,2,16,19,17,10]
}